p cnf 333 63
111 112 113 0
121 122 123 0
131 132 133 0
211 212 213 0
221 222 223 0
231 232 233 0
311 312 313 0
321 322 323 0
331 332 333 0
-111 -121 0
-111 -131 0
-121 -131 0
-112 -122 0
-112 -132 0
-122 -132 0
-113 -123 0
-113 -133 0
-123 -133 0
-211 -221 0
-211 -231 0
-221 -231 0
-212 -222 0
-212 -232 0
-222 -232 0
-213 -223 0
-213 -233 0
-223 -233 0
-311 -321 0
-311 -331 0
-321 -331 0
-312 -322 0
-312 -332 0
-322 -332 0
-313 -323 0
-313 -333 0
-323 -333 0
-111 -211 0
-111 -311 0
-211 -311 0
-112 -212 0
-112 -312 0
-212 -312 0
-113 -213 0
-113 -313 0
-213 -313 0
-121 -221 0
-121 -321 0
-221 -321 0
-122 -222 0
-122 -322 0
-222 -322 0
-123 -223 0
-123 -323 0
-223 -323 0
-131 -231 0
-131 -331 0
-231 -331 0
-132 -232 0
-132 -332 0
-232 -332 0
-133 -233 0
-133 -333 0
-233 -333 0
